* (set-logic QF_BV)
* (set-info :status sat)
* (declare-fun x () (_ BitVec 4))
* (assert (not (= (bvmul (bvneg (bvmul #b1111 #b1111)) #b1111) x)))
* (check-sat)
* sat
* #variable= 12 #constraint= 21
-1 x7 +1 x11 +1 x3 >= 0;
-1 x6 +1 x10 +1 x2 >= 0;
+1 x11 = 0;
+1 x7 -1 x11 +1 x3 >= 0;
+1 x6 -1 x10 +1 x2 >= 0;
-1 x8 +1 x12 +1 x4 >= 0;
+1 x8 +1 x12 -1 x4 >= 0;
+1 x7 +1 x11 -1 x3 >= 0;
+1 x1 +1 x2 +1 x3 +1 x4 >= 1;
+1 x9 = 1;
+1 x6 +1 x10 -1 x2 >= 0;
+1 x10 = 0;
-1 x8 -1 x12 -1 x4 >= -2;
-1 x5 -1 x9 -1 x1 >= -2;
+1 x8 -1 x12 +1 x4 >= 0;
+1 x5 +1 x9 -1 x1 >= 0;
+1 x5 -1 x9 +1 x1 >= 0;
-1 x6 -1 x10 -1 x2 >= -2;
+1 x12 = 0;
-1 x7 -1 x11 -1 x3 >= -2;
-1 x5 +1 x9 +1 x1 >= 0;
